/* Objective function */
min: - 0.0054fpdi - 0.0054fpdo + 0.05apdi + 0.05apdo + 0.0002pi + 0.0002po - 0.5fsi - 0.5fso;

apdi = 0.0 hi + -0.0 li + 10.5997 ri + -0.00376 ci + -1.06283 si + -0.0 ti + 0.05791 fTempIi + 0.00263 ami + -83.38215;
asi = 0.0 hi + 0.0 li + 0.0 ri + -0.0 ci + 0.0 si + 0.0 ti + 0.0 fTempIi + 4e-05 ami + -0.01143;
aTempOi = 0.0 hi + -0.0 li + 0.47134 ri + -0.03293 ci + -0.04925 si + -0.0 ti + 0.71205 fTempIi + -0.00012 ami + 6.90418;
fpdi = 0.0 hi + -0.0 li + 14.03147 ri + -8.00039 ci + -0.02063 si + -0.0 ti + -0.55163 fTempIi + 4e-05 ami + 276.12308;
fsi = 0.0 hi + -0.0 li + -7e-05 ri + -0.03676 ci + 1e-05 si + 0.0 ti + 0.00025 fTempIi + -0.0 ami + 2.40699;
fTempOi = 0.0 hi + 0.0 li + -0.46507 ri + 0.03273 ci + 0.04851 si + 0.0 ti + 0.30479 fTempIi + -0.0001 ami + 8.64017;
pi = 0.0 hi + -0.0 li + 652.4375 ri + 3.31994 ci + -45.83375 si + -0.0 ti + -0.0 fTempIi + 0.0 ami + 2426.64821;

apdo = 0.0 ho + 0.0 lo + 12.76534 ro + 0.00079 co + -1.92163 so + 0.0 to + 0.11828 fTempIo + 0.00443 amo + -158.52455;
aso = 0.0 ho + -0.0 lo + -5e-05 ro + -8e-05 co + -2e-05 so + -0.0 to + -9e-05 fTempIo + 4e-05 amo + -0.00617;
aTempOo = 0.0 ho + 0.0 lo + -0.3118 ro + 0.03038 co + 0.06043 so + -0.0 to + 0.75615 fTempIo + 0.00013 amo + -0.4576;
fpdo = 0.0 ho + -0.0 lo + 19.75398 ro + -19.37663 co + 0.04959 so + -0.0 to + -1.08001 fTempIo + -0.00011 amo + 561.04441;
fso = 0.0 ho + -0.0 lo + 0.00014 ro + -0.05 co + -3e-05 so + -0.0 to + 0.00073 fTempIo + 0.0 amo + 2.77932;
fTempOo = 0.0 ho + 0.0 lo + 0.3052 ro + -0.03048 co + -0.05947 so + -0.0 to + 0.25076 fTempIo + 0.00012 amo + 12.59126;
po = 0.0 ho + 0.0 lo + 515.6 ro + 3.33333 co + -44.32381 so + 0.0 to + 0.0 fTempIo + -0.0 amo + 1784.27619;

/* Variable bounds */
aTempOi > 18.6;
1 =r6i + r8i + r10i + r12i + r14i;
ri =6r6i + 8r8i + 10r10i + 12r12i + 14r14i;
1 =s30i + s40i + s50i + s60i;
si =30s30i + 40s40i + 50s50i + 60s60i;
ti = 3;
apdi > 100;
apdi < 300;
asi > 0;
asi < 3;
aTempOi > 5;
aTempOi < 25;
fpdi > 100;
fpdi < 300;
fsi > 0;
fsi < 1.25;
fTempOi > 5;
fTempOi < 25;
pi > 0;
ri > 6;
ri < 10;
ci > 1;
ci < 60;
si > 25;
si < 60;
ti > 1;
ti < 3;
fTempIi > 5;
fTempIi < 25;

/* aTempOo < 11.4; */
1 =r6o + r8o + r10o + r12o + r14o;
ro =6r6o + 8r8o + 10r10o + 12r12o + 14r14o;
1 =s25o + s30o + s40o;
so =25s25o + 30s30o + 40s40o;
to = 2;
apdo > 100;
apdo < 300;
aso > 0;
aso < 3;
aTempOo > 5;
aTempOo < 25;
fpdo > 100;
fpdo < 300;
fso > 0;
fso < 1.25;
fTempOo > 5;
fTempOo < 25;
po > 0;
ro > 6;
ro < 14;
co > 1;
co < 32;
so > 25;
so < 60;
to > 1;
to < 3;
fTempIo > 5;
fTempIo < 25;
int hi,li,si,ti,ci,ri,ami;
int ho,lo,so,to,co,ro,amo;
bin s25i,s30i,s40i,s50i,s60i,r6i,r8i,r10i,r12i,r14i;
bin s25o,s30o,s40o,s50o,s60o,r6o,r8o,r10o,r12o,r14o;
